Minimize
	value: tt

Subject to
tt + 1000 s_1_1 > 0.0
tt - t_1_1 - 1001.785412 s_1_1  + 1.785412 s_1_7  > -996.351556
tt + 1000 s_2_1 > 0.0
tt - t_2_1 - 1001.562414 s_2_1  + 1.562414 s_2_7  > -993.386341
tt + 1000 s_1_2 > 0.0
tt - t_1_2 - 1001.785412 s_1_2  + 1.785412 s_1_8  > -995.561856
tt + 1000 s_2_2 > 0.0
tt - t_2_2 - 1001.562414 s_2_2  + 1.562414 s_2_8  > -992.713140
tt + 1000 s_1_3 > 0.0
tt - t_1_3 - 1001.785412 s_1_3  + 1.785412 s_1_8  > -995.050133
tt + 1000 s_2_3 > 0.0
tt - t_2_3 - 1001.562414 s_2_3  + 1.562414 s_2_8  > -989.197835
tt + 1000 s_1_4 > 0.0
tt - t_1_4 - 1002.898533 s_1_4  + 1.785412 s_1_8  + 1.113122 s_1_3  > -997.828956
tt + 1000 s_2_4 > 0.0
tt - t_2_4 - 1002.450639 s_2_4  + 1.562414 s_2_8  + 0.888224 s_2_3  > -994.309167
tt + 1000 s_1_5 > 0.0
tt - t_1_5 - 1003.570824 s_1_5  + 1.785412 s_1_7  + 1.785412 s_1_8  > -996.812467
tt + 1000 s_2_5 > 0.0
tt - t_2_5 - 1003.124829 s_2_5  + 1.562414 s_2_7  + 1.562414 s_2_8  > -992.453081
tt + 1000 s_1_6 > 0.0
tt - t_1_6 - 1005.565608 s_1_6  + 1.113122 s_1_5  + 1.113122 s_1_2  + 1.113122 s_1_3  + 1.113122 s_1_4  + 1.113122 s_1_1  > -999.785700
tt + 1000 s_2_6 > 0.0
tt - t_2_6 - 1004.441122 s_2_6  + 0.888224 s_2_5  + 0.888224 s_2_2  + 0.888224 s_2_3  + 0.888224 s_2_4  + 0.888224 s_2_1  > -995.883700
tt + 1000 s_1_7 > 0.0
tt - t_1_7 - 1000.000000 s_1_7  > -992.406400
tt + 1000 s_2_7 > 0.0
tt - t_2_7 - 1000.000000 s_2_7  > -994.562789
tt + 1000 s_1_8 > 0.0
tt - t_1_8 - 1000.000000 s_1_8  > -992.080189
tt + 1000 s_2_8 > 0.0
tt - t_2_8 - 1000.000000 s_2_8  > -993.875800
s_1_1 + s_2_1 = 1
s_1_2 + s_2_2 = 1
s_1_3 + s_2_3 = 1
s_1_4 + s_2_4 = 1
s_1_5 + s_2_5 = 1
s_1_6 + s_2_6 = 1
s_1_7 + s_2_7 = 1
s_1_8 + s_2_8 = 1
s_1_1 + s_1_2 + 1000 r_1_1_2 >= 2
- s_1_1 - s_1_2 - 1000 r_1_1_2 >= -1001
t_1_1 - t_1_2 - 1000.000000 u_1_1_2 - 1.785412 s_1_2  + 1.785412 s_1_8  + 2000.000000 r_1_1_2 > -995.561856
s_2_1 + s_2_2 + 1000 r_2_1_2 >= 2
- s_2_1 - s_2_2 - 1000 r_2_1_2 >= -1001
t_2_1 - t_2_2 - 1000.000000 u_2_1_2 - 1.562414 s_2_2  + 1.562414 s_2_8  + 2000.000000 r_2_1_2 > -992.713140
s_1_1 + s_1_3 + 1000 r_1_1_3 >= 2
- s_1_1 - s_1_3 - 1000 r_1_1_3 >= -1001
t_1_1 - t_1_3 - 1000.000000 u_1_1_3 - 1.785412 s_1_3  + 1.785412 s_1_8  + 2000.000000 r_1_1_3 > -995.050133
s_2_1 + s_2_3 + 1000 r_2_1_3 >= 2
- s_2_1 - s_2_3 - 1000 r_2_1_3 >= -1001
t_2_1 - t_2_3 - 1000.000000 u_2_1_3 - 1.562414 s_2_3  + 1.562414 s_2_8  + 2000.000000 r_2_1_3 > -989.197835
s_1_1 + s_1_4 + 1000 r_1_1_4 >= 2
- s_1_1 - s_1_4 - 1000 r_1_1_4 >= -1001
t_1_1 - t_1_4 - 1000.000000 u_1_1_4 - 2.898533 s_1_4  + 1.785412 s_1_8  + 1.113122 s_1_3  + 2000.000000 r_1_1_4 > -997.828956
s_2_1 + s_2_4 + 1000 r_2_1_4 >= 2
- s_2_1 - s_2_4 - 1000 r_2_1_4 >= -1001
t_2_1 - t_2_4 - 1000.000000 u_2_1_4 - 2.450639 s_2_4  + 1.562414 s_2_8  + 0.888224 s_2_3  + 2000.000000 r_2_1_4 > -994.309167
s_1_1 + s_1_5 + 1000 r_1_1_5 >= 2
- s_1_1 - s_1_5 - 1000 r_1_1_5 >= -1001
t_1_1 - t_1_5 - 1000.000000 u_1_1_5 - 3.570824 s_1_5  + 1.785412 s_1_7  + 1.785412 s_1_8  + 2000.000000 r_1_1_5 > -996.812467
s_2_1 + s_2_5 + 1000 r_2_1_5 >= 2
- s_2_1 - s_2_5 - 1000 r_2_1_5 >= -1001
t_2_1 - t_2_5 - 1000.000000 u_2_1_5 - 3.124829 s_2_5  + 1.562414 s_2_7  + 1.562414 s_2_8  + 2000.000000 r_2_1_5 > -992.453081
t_1_6 - t_1_1 - 1001.785412 s_1_1  + 1.785412 s_1_7  > -996.351556
t_1_6 - t_2_1 - 1001.562414 s_2_1  + 1.562414 s_2_7  > -993.386341
t_2_6 - t_1_1 - 1001.785412 s_1_1  + 1.785412 s_1_7  > -996.351556
t_2_6 - t_2_1 - 1001.562414 s_2_1  + 1.562414 s_2_7  > -993.386341
t_1_1 - t_1_7 - 1000.000000 s_1_7  > -992.406400
t_1_1 - t_2_7 - 1000.000000 s_2_7  > -994.562789
t_2_1 - t_1_7 - 1000.000000 s_1_7  > -992.406400
t_2_1 - t_2_7 - 1000.000000 s_2_7  > -994.562789
s_1_1 + s_1_8 + 1000 r_1_1_8 >= 2
- s_1_1 - s_1_8 - 1000 r_1_1_8 >= -1001
t_1_1 - t_1_8 - 1000.000000 u_1_1_8 - 0.000000 s_1_8  + 2000.000000 r_1_1_8 > -992.080189
s_2_1 + s_2_8 + 1000 r_2_1_8 >= 2
- s_2_1 - s_2_8 - 1000 r_2_1_8 >= -1001
t_2_1 - t_2_8 - 1000.000000 u_2_1_8 - 0.000000 s_2_8  + 2000.000000 r_2_1_8 > -993.875800
s_1_2 + s_1_1 + 1000 r_1_1_2 >= 2
- s_1_2 - s_1_1 - 1000 r_1_1_2 >= -1001
t_1_2 - t_1_1 + 1000.000000 u_1_1_2 - 1.785412 s_1_1  + 1.785412 s_1_7  + 2000.000000 r_1_1_2 > 3.648444
s_2_2 + s_2_1 + 1000 r_2_1_2 >= 2
- s_2_2 - s_2_1 - 1000 r_2_1_2 >= -1001
t_2_2 - t_2_1 + 1000.000000 u_2_1_2 - 1.562414 s_2_1  + 1.562414 s_2_7  + 2000.000000 r_2_1_2 > 6.613659
s_1_2 + s_1_3 + 1000 r_1_2_3 >= 2
- s_1_2 - s_1_3 - 1000 r_1_2_3 >= -1001
t_1_2 - t_1_3 - 1000.000000 u_1_2_3 - 1.785412 s_1_3  + 1.785412 s_1_8  + 2000.000000 r_1_2_3 > -995.050133
s_2_2 + s_2_3 + 1000 r_2_2_3 >= 2
- s_2_2 - s_2_3 - 1000 r_2_2_3 >= -1001
t_2_2 - t_2_3 - 1000.000000 u_2_2_3 - 1.562414 s_2_3  + 1.562414 s_2_8  + 2000.000000 r_2_2_3 > -989.197835
s_1_2 + s_1_4 + 1000 r_1_2_4 >= 2
- s_1_2 - s_1_4 - 1000 r_1_2_4 >= -1001
t_1_2 - t_1_4 - 1000.000000 u_1_2_4 - 2.898533 s_1_4  + 1.785412 s_1_8  + 1.113122 s_1_3  + 2000.000000 r_1_2_4 > -997.828956
s_2_2 + s_2_4 + 1000 r_2_2_4 >= 2
- s_2_2 - s_2_4 - 1000 r_2_2_4 >= -1001
t_2_2 - t_2_4 - 1000.000000 u_2_2_4 - 2.450639 s_2_4  + 1.562414 s_2_8  + 0.888224 s_2_3  + 2000.000000 r_2_2_4 > -994.309167
s_1_2 + s_1_5 + 1000 r_1_2_5 >= 2
- s_1_2 - s_1_5 - 1000 r_1_2_5 >= -1001
t_1_2 - t_1_5 - 1000.000000 u_1_2_5 - 3.570824 s_1_5  + 1.785412 s_1_7  + 1.785412 s_1_8  + 2000.000000 r_1_2_5 > -996.812467
s_2_2 + s_2_5 + 1000 r_2_2_5 >= 2
- s_2_2 - s_2_5 - 1000 r_2_2_5 >= -1001
t_2_2 - t_2_5 - 1000.000000 u_2_2_5 - 3.124829 s_2_5  + 1.562414 s_2_7  + 1.562414 s_2_8  + 2000.000000 r_2_2_5 > -992.453081
t_1_6 - t_1_2 - 1001.785412 s_1_2  + 1.785412 s_1_8  > -995.561856
t_1_6 - t_2_2 - 1001.562414 s_2_2  + 1.562414 s_2_8  > -992.713140
t_2_6 - t_1_2 - 1001.785412 s_1_2  + 1.785412 s_1_8  > -995.561856
t_2_6 - t_2_2 - 1001.562414 s_2_2  + 1.562414 s_2_8  > -992.713140
s_1_2 + s_1_7 + 1000 r_1_2_7 >= 2
- s_1_2 - s_1_7 - 1000 r_1_2_7 >= -1001
t_1_2 - t_1_7 - 1000.000000 u_1_2_7 - 0.000000 s_1_7  + 2000.000000 r_1_2_7 > -992.406400
s_2_2 + s_2_7 + 1000 r_2_2_7 >= 2
- s_2_2 - s_2_7 - 1000 r_2_2_7 >= -1001
t_2_2 - t_2_7 - 1000.000000 u_2_2_7 - 0.000000 s_2_7  + 2000.000000 r_2_2_7 > -994.562789
t_1_2 - t_1_8 - 1000.000000 s_1_8  > -992.080189
t_1_2 - t_2_8 - 1000.000000 s_2_8  > -993.875800
t_2_2 - t_1_8 - 1000.000000 s_1_8  > -992.080189
t_2_2 - t_2_8 - 1000.000000 s_2_8  > -993.875800
s_1_3 + s_1_1 + 1000 r_1_1_3 >= 2
- s_1_3 - s_1_1 - 1000 r_1_1_3 >= -1001
t_1_3 - t_1_1 + 1000.000000 u_1_1_3 - 1.785412 s_1_1  + 1.785412 s_1_7  + 2000.000000 r_1_1_3 > 3.648444
s_2_3 + s_2_1 + 1000 r_2_1_3 >= 2
- s_2_3 - s_2_1 - 1000 r_2_1_3 >= -1001
t_2_3 - t_2_1 + 1000.000000 u_2_1_3 - 1.562414 s_2_1  + 1.562414 s_2_7  + 2000.000000 r_2_1_3 > 6.613659
s_1_3 + s_1_2 + 1000 r_1_2_3 >= 2
- s_1_3 - s_1_2 - 1000 r_1_2_3 >= -1001
t_1_3 - t_1_2 + 1000.000000 u_1_2_3 - 1.785412 s_1_2  + 1.785412 s_1_8  + 2000.000000 r_1_2_3 > 4.438144
s_2_3 + s_2_2 + 1000 r_2_2_3 >= 2
- s_2_3 - s_2_2 - 1000 r_2_2_3 >= -1001
t_2_3 - t_2_2 + 1000.000000 u_2_2_3 - 1.562414 s_2_2  + 1.562414 s_2_8  + 2000.000000 r_2_2_3 > 7.286860
t_1_4 - t_1_3 - 1001.785412 s_1_3  + 1.785412 s_1_8  > -995.050133
t_1_4 - t_2_3 - 1001.562414 s_2_3  + 1.562414 s_2_8  > -989.197835
t_2_4 - t_1_3 - 1001.785412 s_1_3  + 1.785412 s_1_8  > -995.050133
t_2_4 - t_2_3 - 1001.562414 s_2_3  + 1.562414 s_2_8  > -989.197835
s_1_3 + s_1_5 + 1000 r_1_3_5 >= 2
- s_1_3 - s_1_5 - 1000 r_1_3_5 >= -1001
t_1_3 - t_1_5 - 1000.000000 u_1_3_5 - 3.570824 s_1_5  + 1.785412 s_1_7  + 1.785412 s_1_8  + 2000.000000 r_1_3_5 > -996.812467
s_2_3 + s_2_5 + 1000 r_2_3_5 >= 2
- s_2_3 - s_2_5 - 1000 r_2_3_5 >= -1001
t_2_3 - t_2_5 - 1000.000000 u_2_3_5 - 3.124829 s_2_5  + 1.562414 s_2_7  + 1.562414 s_2_8  + 2000.000000 r_2_3_5 > -992.453081
t_1_6 - t_1_3 - 1001.785412 s_1_3  + 1.785412 s_1_8  > -995.050133
t_1_6 - t_2_3 - 1001.562414 s_2_3  + 1.562414 s_2_8  > -989.197835
t_2_6 - t_1_3 - 1001.785412 s_1_3  + 1.785412 s_1_8  > -995.050133
t_2_6 - t_2_3 - 1001.562414 s_2_3  + 1.562414 s_2_8  > -989.197835
s_1_3 + s_1_7 + 1000 r_1_3_7 >= 2
- s_1_3 - s_1_7 - 1000 r_1_3_7 >= -1001
t_1_3 - t_1_7 - 1000.000000 u_1_3_7 - 0.000000 s_1_7  + 2000.000000 r_1_3_7 > -992.406400
s_2_3 + s_2_7 + 1000 r_2_3_7 >= 2
- s_2_3 - s_2_7 - 1000 r_2_3_7 >= -1001
t_2_3 - t_2_7 - 1000.000000 u_2_3_7 - 0.000000 s_2_7  + 2000.000000 r_2_3_7 > -994.562789
t_1_3 - t_1_8 - 1000.000000 s_1_8  > -992.080189
t_1_3 - t_2_8 - 1000.000000 s_2_8  > -993.875800
t_2_3 - t_1_8 - 1000.000000 s_1_8  > -992.080189
t_2_3 - t_2_8 - 1000.000000 s_2_8  > -993.875800
s_1_4 + s_1_1 + 1000 r_1_1_4 >= 2
- s_1_4 - s_1_1 - 1000 r_1_1_4 >= -1001
t_1_4 - t_1_1 + 1000.000000 u_1_1_4 - 1.785412 s_1_1  + 1.785412 s_1_7  + 2000.000000 r_1_1_4 > 3.648444
s_2_4 + s_2_1 + 1000 r_2_1_4 >= 2
- s_2_4 - s_2_1 - 1000 r_2_1_4 >= -1001
t_2_4 - t_2_1 + 1000.000000 u_2_1_4 - 1.562414 s_2_1  + 1.562414 s_2_7  + 2000.000000 r_2_1_4 > 6.613659
s_1_4 + s_1_2 + 1000 r_1_2_4 >= 2
- s_1_4 - s_1_2 - 1000 r_1_2_4 >= -1001
t_1_4 - t_1_2 + 1000.000000 u_1_2_4 - 1.785412 s_1_2  + 1.785412 s_1_8  + 2000.000000 r_1_2_4 > 4.438144
s_2_4 + s_2_2 + 1000 r_2_2_4 >= 2
- s_2_4 - s_2_2 - 1000 r_2_2_4 >= -1001
t_2_4 - t_2_2 + 1000.000000 u_2_2_4 - 1.562414 s_2_2  + 1.562414 s_2_8  + 2000.000000 r_2_2_4 > 7.286860
s_1_4 + s_1_5 + 1000 r_1_4_5 >= 2
- s_1_4 - s_1_5 - 1000 r_1_4_5 >= -1001
t_1_4 - t_1_5 - 1000.000000 u_1_4_5 - 3.570824 s_1_5  + 1.785412 s_1_7  + 1.785412 s_1_8  + 2000.000000 r_1_4_5 > -996.812467
s_2_4 + s_2_5 + 1000 r_2_4_5 >= 2
- s_2_4 - s_2_5 - 1000 r_2_4_5 >= -1001
t_2_4 - t_2_5 - 1000.000000 u_2_4_5 - 3.124829 s_2_5  + 1.562414 s_2_7  + 1.562414 s_2_8  + 2000.000000 r_2_4_5 > -992.453081
t_1_6 - t_1_4 - 1002.898533 s_1_4  + 1.785412 s_1_8  + 1.113122 s_1_3  > -997.828956
t_1_6 - t_2_4 - 1002.450639 s_2_4  + 1.562414 s_2_8  + 0.888224 s_2_3  > -994.309167
t_2_6 - t_1_4 - 1002.898533 s_1_4  + 1.785412 s_1_8  + 1.113122 s_1_3  > -997.828956
t_2_6 - t_2_4 - 1002.450639 s_2_4  + 1.562414 s_2_8  + 0.888224 s_2_3  > -994.309167
s_1_4 + s_1_7 + 1000 r_1_4_7 >= 2
- s_1_4 - s_1_7 - 1000 r_1_4_7 >= -1001
t_1_4 - t_1_7 - 1000.000000 u_1_4_7 - 0.000000 s_1_7  + 2000.000000 r_1_4_7 > -992.406400
s_2_4 + s_2_7 + 1000 r_2_4_7 >= 2
- s_2_4 - s_2_7 - 1000 r_2_4_7 >= -1001
t_2_4 - t_2_7 - 1000.000000 u_2_4_7 - 0.000000 s_2_7  + 2000.000000 r_2_4_7 > -994.562789
t_1_4 - t_1_8 - 1000.000000 s_1_8  > -992.080189
t_1_4 - t_2_8 - 1000.000000 s_2_8  > -993.875800
t_2_4 - t_1_8 - 1000.000000 s_1_8  > -992.080189
t_2_4 - t_2_8 - 1000.000000 s_2_8  > -993.875800
s_1_5 + s_1_1 + 1000 r_1_1_5 >= 2
- s_1_5 - s_1_1 - 1000 r_1_1_5 >= -1001
t_1_5 - t_1_1 + 1000.000000 u_1_1_5 - 1.785412 s_1_1  + 1.785412 s_1_7  + 2000.000000 r_1_1_5 > 3.648444
s_2_5 + s_2_1 + 1000 r_2_1_5 >= 2
- s_2_5 - s_2_1 - 1000 r_2_1_5 >= -1001
t_2_5 - t_2_1 + 1000.000000 u_2_1_5 - 1.562414 s_2_1  + 1.562414 s_2_7  + 2000.000000 r_2_1_5 > 6.613659
s_1_5 + s_1_2 + 1000 r_1_2_5 >= 2
- s_1_5 - s_1_2 - 1000 r_1_2_5 >= -1001
t_1_5 - t_1_2 + 1000.000000 u_1_2_5 - 1.785412 s_1_2  + 1.785412 s_1_8  + 2000.000000 r_1_2_5 > 4.438144
s_2_5 + s_2_2 + 1000 r_2_2_5 >= 2
- s_2_5 - s_2_2 - 1000 r_2_2_5 >= -1001
t_2_5 - t_2_2 + 1000.000000 u_2_2_5 - 1.562414 s_2_2  + 1.562414 s_2_8  + 2000.000000 r_2_2_5 > 7.286860
s_1_5 + s_1_3 + 1000 r_1_3_5 >= 2
- s_1_5 - s_1_3 - 1000 r_1_3_5 >= -1001
t_1_5 - t_1_3 + 1000.000000 u_1_3_5 - 1.785412 s_1_3  + 1.785412 s_1_8  + 2000.000000 r_1_3_5 > 4.949867
s_2_5 + s_2_3 + 1000 r_2_3_5 >= 2
- s_2_5 - s_2_3 - 1000 r_2_3_5 >= -1001
t_2_5 - t_2_3 + 1000.000000 u_2_3_5 - 1.562414 s_2_3  + 1.562414 s_2_8  + 2000.000000 r_2_3_5 > 10.802165
s_1_5 + s_1_4 + 1000 r_1_4_5 >= 2
- s_1_5 - s_1_4 - 1000 r_1_4_5 >= -1001
t_1_5 - t_1_4 + 1000.000000 u_1_4_5 - 2.898533 s_1_4  + 1.785412 s_1_8  + 1.113122 s_1_3  + 2000.000000 r_1_4_5 > 2.171044
s_2_5 + s_2_4 + 1000 r_2_4_5 >= 2
- s_2_5 - s_2_4 - 1000 r_2_4_5 >= -1001
t_2_5 - t_2_4 + 1000.000000 u_2_4_5 - 2.450639 s_2_4  + 1.562414 s_2_8  + 0.888224 s_2_3  + 2000.000000 r_2_4_5 > 5.690833
t_1_6 - t_1_5 - 1003.570824 s_1_5  + 1.785412 s_1_7  + 1.785412 s_1_8  > -996.812467
t_1_6 - t_2_5 - 1003.124829 s_2_5  + 1.562414 s_2_7  + 1.562414 s_2_8  > -992.453081
t_2_6 - t_1_5 - 1003.570824 s_1_5  + 1.785412 s_1_7  + 1.785412 s_1_8  > -996.812467
t_2_6 - t_2_5 - 1003.124829 s_2_5  + 1.562414 s_2_7  + 1.562414 s_2_8  > -992.453081
t_1_5 - t_1_7 - 1000.000000 s_1_7  > -992.406400
t_1_5 - t_2_7 - 1000.000000 s_2_7  > -994.562789
t_2_5 - t_1_7 - 1000.000000 s_1_7  > -992.406400
t_2_5 - t_2_7 - 1000.000000 s_2_7  > -994.562789
t_1_5 - t_1_8 - 1000.000000 s_1_8  > -992.080189
t_1_5 - t_2_8 - 1000.000000 s_2_8  > -993.875800
t_2_5 - t_1_8 - 1000.000000 s_1_8  > -992.080189
t_2_5 - t_2_8 - 1000.000000 s_2_8  > -993.875800
s_1_7 + s_1_2 + 1000 r_1_2_7 >= 2
- s_1_7 - s_1_2 - 1000 r_1_2_7 >= -1001
t_1_7 - t_1_2 + 1000.000000 u_1_2_7 - 1.785412 s_1_2  + 1.785412 s_1_8  + 2000.000000 r_1_2_7 > 4.438144
s_2_7 + s_2_2 + 1000 r_2_2_7 >= 2
- s_2_7 - s_2_2 - 1000 r_2_2_7 >= -1001
t_2_7 - t_2_2 + 1000.000000 u_2_2_7 - 1.562414 s_2_2  + 1.562414 s_2_8  + 2000.000000 r_2_2_7 > 7.286860
s_1_7 + s_1_3 + 1000 r_1_3_7 >= 2
- s_1_7 - s_1_3 - 1000 r_1_3_7 >= -1001
t_1_7 - t_1_3 + 1000.000000 u_1_3_7 - 1.785412 s_1_3  + 1.785412 s_1_8  + 2000.000000 r_1_3_7 > 4.949867
s_2_7 + s_2_3 + 1000 r_2_3_7 >= 2
- s_2_7 - s_2_3 - 1000 r_2_3_7 >= -1001
t_2_7 - t_2_3 + 1000.000000 u_2_3_7 - 1.562414 s_2_3  + 1.562414 s_2_8  + 2000.000000 r_2_3_7 > 10.802165
s_1_7 + s_1_4 + 1000 r_1_4_7 >= 2
- s_1_7 - s_1_4 - 1000 r_1_4_7 >= -1001
t_1_7 - t_1_4 + 1000.000000 u_1_4_7 - 2.898533 s_1_4  + 1.785412 s_1_8  + 1.113122 s_1_3  + 2000.000000 r_1_4_7 > 2.171044
s_2_7 + s_2_4 + 1000 r_2_4_7 >= 2
- s_2_7 - s_2_4 - 1000 r_2_4_7 >= -1001
t_2_7 - t_2_4 + 1000.000000 u_2_4_7 - 2.450639 s_2_4  + 1.562414 s_2_8  + 0.888224 s_2_3  + 2000.000000 r_2_4_7 > 5.690833
s_1_7 + s_1_8 + 1000 r_1_7_8 >= 2
- s_1_7 - s_1_8 - 1000 r_1_7_8 >= -1001
t_1_7 - t_1_8 - 1000.000000 u_1_7_8 - 0.000000 s_1_8  + 2000.000000 r_1_7_8 > -992.080189
s_2_7 + s_2_8 + 1000 r_2_7_8 >= 2
- s_2_7 - s_2_8 - 1000 r_2_7_8 >= -1001
t_2_7 - t_2_8 - 1000.000000 u_2_7_8 - 0.000000 s_2_8  + 2000.000000 r_2_7_8 > -993.875800
s_1_8 + s_1_1 + 1000 r_1_1_8 >= 2
- s_1_8 - s_1_1 - 1000 r_1_1_8 >= -1001
t_1_8 - t_1_1 + 1000.000000 u_1_1_8 - 1.785412 s_1_1  + 1.785412 s_1_7  + 2000.000000 r_1_1_8 > 3.648444
s_2_8 + s_2_1 + 1000 r_2_1_8 >= 2
- s_2_8 - s_2_1 - 1000 r_2_1_8 >= -1001
t_2_8 - t_2_1 + 1000.000000 u_2_1_8 - 1.562414 s_2_1  + 1.562414 s_2_7  + 2000.000000 r_2_1_8 > 6.613659
s_1_8 + s_1_7 + 1000 r_1_7_8 >= 2
- s_1_8 - s_1_7 - 1000 r_1_7_8 >= -1001
t_1_8 - t_1_7 + 1000.000000 u_1_7_8 - 0.000000 s_1_7  + 2000.000000 r_1_7_8 > 7.593600
s_2_8 + s_2_7 + 1000 r_2_7_8 >= 2
- s_2_8 - s_2_7 - 1000 r_2_7_8 >= -1001
t_2_8 - t_2_7 + 1000.000000 u_2_7_8 - 0.000000 s_2_7  + 2000.000000 r_2_7_8 > 5.437211
Binary
s_1_1
s_2_1
s_1_2
s_2_2
s_1_3
s_2_3
s_1_4
s_2_4
s_1_5
s_2_5
s_1_6
s_2_6
s_1_7
s_2_7
s_1_8
s_2_8
u_1_1_2
r_1_1_2
u_2_1_2
r_2_1_2
u_1_1_3
r_1_1_3
u_2_1_3
r_2_1_3
u_1_1_4
r_1_1_4
u_2_1_4
r_2_1_4
u_1_1_5
r_1_1_5
u_2_1_5
r_2_1_5
u_1_1_8
r_1_1_8
u_2_1_8
r_2_1_8
u_1_2_3
r_1_2_3
u_2_2_3
r_2_2_3
u_1_2_4
r_1_2_4
u_2_2_4
r_2_2_4
u_1_2_5
r_1_2_5
u_2_2_5
r_2_2_5
u_1_2_7
r_1_2_7
u_2_2_7
r_2_2_7
u_1_3_5
r_1_3_5
u_2_3_5
r_2_3_5
u_1_3_7
r_1_3_7
u_2_3_7
r_2_3_7
u_1_4_5
r_1_4_5
u_2_4_5
r_2_4_5
u_1_4_7
r_1_4_7
u_2_4_7
r_2_4_7
u_1_7_8
r_1_7_8
u_2_7_8
r_2_7_8

End
